p edge 100 1238
e 1 7
e 1 9
e 1 16
e 1 20
e 1 22
e 1 28
e 1 36
e 1 38
e 1 45
e 1 48
e 1 49
e 1 54
e 1 62
e 1 63
e 1 67
e 1 71
e 1 90
e 1 93
e 1 99
e 1 100
e 2 6
e 2 19
e 2 28
e 2 30
e 2 31
e 2 32
e 2 43
e 2 45
e 2 54
e 2 71
e 2 73
e 2 75
e 2 77
e 2 80
e 2 81
e 2 94
e 2 97
e 3 10
e 3 13
e 3 22
e 3 23
e 3 24
e 3 25
e 3 26
e 3 29
e 3 30
e 3 32
e 3 37
e 3 41
e 3 45
e 3 49
e 3 56
e 3 58
e 3 59
e 3 60
e 3 65
e 3 67
e 3 68
e 3 76
e 3 80
e 3 81
e 3 82
e 3 86
e 3 87
e 3 89
e 3 90
e 3 91
e 3 92
e 3 95
e 4 6
e 4 7
e 4 15
e 4 17
e 4 24
e 4 26
e 4 28
e 4 30
e 4 31
e 4 34
e 4 35
e 4 36
e 4 44
e 4 60
e 4 61
e 4 69
e 4 70
e 4 71
e 4 74
e 4 76
e 4 80
e 4 81
e 4 83
e 4 88
e 4 91
e 4 93
e 4 95
e 4 96
e 4 99
e 5 6
e 5 13
e 5 16
e 5 17
e 5 24
e 5 36
e 5 37
e 5 38
e 5 40
e 5 47
e 5 50
e 5 60
e 5 62
e 5 67
e 5 68
e 5 69
e 5 70
e 5 80
e 5 82
e 5 84
e 5 87
e 5 88
e 5 99
e 6 11
e 6 17
e 6 18
e 6 21
e 6 23
e 6 27
e 6 45
e 6 50
e 6 51
e 6 56
e 6 57
e 6 65
e 6 71
e 6 73
e 6 74
e 6 78
e 6 80
e 6 82
e 6 88
e 6 96
e 6 99
e 7 26
e 7 27
e 7 30
e 7 31
e 7 37
e 7 39
e 7 41
e 7 46
e 7 49
e 7 54
e 7 57
e 7 60
e 7 69
e 7 71
e 7 75
e 7 80
e 7 81
e 7 92
e 7 94
e 7 98
e 7 100
e 8 17
e 8 26
e 8 29
e 8 41
e 8 52
e 8 71
e 8 86
e 8 88
e 8 89
e 8 93
e 8 94
e 8 96
e 8 99
e 9 10
e 9 15
e 9 16
e 9 18
e 9 25
e 9 27
e 9 28
e 9 29
e 9 35
e 9 40
e 9 41
e 9 53
e 9 63
e 9 67
e 9 70
e 9 75
e 9 76
e 9 93
e 9 94
e 9 98
e 10 12
e 10 13
e 10 20
e 10 21
e 10 24
e 10 25
e 10 28
e 10 30
e 10 40
e 10 42
e 10 44
e 10 49
e 10 57
e 10 62
e 10 68
e 10 73
e 10 75
e 10 79
e 10 81
e 10 86
e 10 91
e 10 93
e 10 94
e 11 14
e 11 23
e 11 27
e 11 31
e 11 39
e 11 44
e 11 46
e 11 47
e 11 48
e 11 52
e 11 56
e 11 70
e 11 76
e 11 77
e 11 90
e 11 95
e 11 100
e 12 16
e 12 17
e 12 19
e 12 20
e 12 22
e 12 26
e 12 32
e 12 34
e 12 35
e 12 36
e 12 39
e 12 43
e 12 45
e 12 52
e 12 53
e 12 57
e 12 67
e 12 68
e 12 86
e 12 89
e 13 15
e 13 35
e 13 40
e 13 41
e 13 50
e 13 57
e 13 65
e 13 66
e 13 72
e 13 73
e 13 75
e 13 76
e 13 84
e 13 89
e 13 98
e 14 22
e 14 23
e 14 24
e 14 25
e 14 27
e 14 30
e 14 32
e 14 34
e 14 41
e 14 42
e 14 46
e 14 47
e 14 48
e 14 50
e 14 55
e 14 56
e 14 59
e 14 61
e 14 63
e 14 65
e 14 82
e 15 18
e 15 19
e 15 22
e 15 30
e 15 36
e 15 38
e 15 56
e 15 57
e 15 60
e 15 62
e 15 64
e 15 68
e 15 77
e 15 78
e 15 81
e 15 86
e 15 89
e 15 93
e 15 95
e 16 19
e 16 20
e 16 22
e 16 24
e 16 33
e 16 36
e 16 41
e 16 52
e 16 55
e 16 57
e 16 60
e 16 67
e 16 70
e 16 72
e 16 75
e 16 77
e 16 80
e 16 82
e 16 83
e 16 86
e 16 95
e 16 98
e 17 18
e 17 27
e 17 30
e 17 31
e 17 33
e 17 35
e 17 38
e 17 49
e 17 53
e 17 60
e 17 61
e 17 71
e 17 74
e 17 90
e 17 97
e 18 20
e 18 22
e 18 34
e 18 35
e 18 38
e 18 39
e 18 44
e 18 46
e 18 47
e 18 49
e 18 53
e 18 63
e 18 65
e 18 69
e 18 77
e 18 78
e 18 79
e 18 81
e 18 87
e 18 90
e 18 94
e 18 99
e 19 25
e 19 27
e 19 29
e 19 32
e 19 43
e 19 44
e 19 50
e 19 53
e 19 58
e 19 59
e 19 63
e 19 68
e 19 69
e 19 83
e 19 91
e 19 95
e 19 98
e 20 22
e 20 29
e 20 30
e 20 34
e 20 37
e 20 40
e 20 51
e 20 60
e 20 65
e 20 67
e 20 70
e 20 72
e 20 77
e 20 78
e 20 80
e 20 81
e 20 84
e 20 89
e 20 93
e 20 99
e 21 22
e 21 26
e 21 27
e 21 36
e 21 40
e 21 46
e 21 55
e 21 58
e 21 60
e 21 61
e 21 70
e 21 73
e 21 74
e 21 75
e 21 78
e 21 81
e 21 83
e 21 84
e 21 92
e 21 94
e 21 95
e 21 97
e 21 98
e 21 99
e 22 25
e 22 28
e 22 29
e 22 30
e 22 32
e 22 41
e 22 44
e 22 47
e 22 49
e 22 52
e 22 64
e 22 65
e 22 68
e 22 79
e 22 83
e 22 99
e 23 24
e 23 25
e 23 28
e 23 30
e 23 31
e 23 35
e 23 44
e 23 45
e 23 60
e 23 65
e 23 67
e 23 73
e 23 74
e 23 78
e 23 80
e 23 83
e 23 84
e 23 88
e 23 95
e 23 98
e 24 26
e 24 29
e 24 39
e 24 42
e 24 44
e 24 46
e 24 51
e 24 54
e 24 59
e 24 60
e 24 61
e 24 62
e 24 85
e 24 87
e 24 93
e 24 99
e 24 100
e 25 29
e 25 31
e 25 40
e 25 44
e 25 45
e 25 51
e 25 59
e 25 66
e 25 74
e 25 90
e 25 91
e 26 33
e 26 36
e 26 51
e 26 53
e 26 56
e 26 58
e 26 59
e 26 61
e 26 65
e 26 66
e 26 69
e 26 71
e 26 73
e 26 78
e 26 88
e 26 90
e 26 91
e 26 92
e 26 98
e 26 100
e 27 29
e 27 32
e 27 34
e 27 38
e 27 44
e 27 45
e 27 47
e 27 53
e 27 59
e 27 63
e 27 68
e 27 70
e 27 79
e 27 84
e 27 87
e 27 97
e 27 99
e 28 33
e 28 34
e 28 42
e 28 44
e 28 49
e 28 51
e 28 52
e 28 53
e 28 55
e 28 58
e 28 59
e 28 61
e 28 68
e 28 70
e 28 71
e 28 76
e 28 78
e 28 80
e 28 81
e 28 86
e 28 90
e 28 93
e 28 96
e 28 97
e 29 31
e 29 35
e 29 36
e 29 42
e 29 45
e 29 51
e 29 52
e 29 54
e 29 60
e 29 63
e 29 64
e 29 69
e 29 73
e 29 80
e 29 81
e 29 94
e 29 96
e 29 99
e 30 42
e 30 46
e 30 48
e 30 49
e 30 50
e 30 52
e 30 53
e 30 55
e 30 56
e 30 57
e 30 65
e 30 68
e 30 69
e 30 71
e 30 77
e 30 90
e 30 93
e 30 94
e 30 99
e 31 37
e 31 41
e 31 42
e 31 47
e 31 51
e 31 52
e 31 62
e 31 71
e 31 76
e 31 86
e 31 87
e 31 89
e 31 94
e 31 95
e 31 99
e 32 35
e 32 44
e 32 46
e 32 48
e 32 49
e 32 50
e 32 53
e 32 55
e 32 62
e 32 65
e 32 66
e 32 68
e 32 69
e 32 76
e 32 77
e 32 78
e 32 82
e 32 88
e 32 94
e 32 100
e 33 36
e 33 37
e 33 39
e 33 41
e 33 43
e 33 45
e 33 48
e 33 53
e 33 56
e 33 57
e 33 60
e 33 61
e 33 71
e 33 77
e 33 79
e 33 80
e 33 83
e 33 84
e 33 85
e 33 88
e 33 89
e 33 92
e 33 93
e 33 100
e 34 40
e 34 45
e 34 51
e 34 58
e 34 59
e 34 63
e 34 68
e 34 72
e 34 75
e 34 77
e 34 82
e 34 87
e 35 39
e 35 41
e 35 44
e 35 49
e 35 62
e 35 65
e 35 67
e 35 72
e 35 79
e 35 82
e 35 87
e 35 89
e 35 95
e 35 97
e 36 37
e 36 40
e 36 41
e 36 42
e 36 45
e 36 48
e 36 50
e 36 54
e 36 58
e 36 62
e 36 66
e 36 67
e 36 68
e 36 70
e 36 71
e 36 78
e 36 79
e 36 85
e 36 90
e 36 94
e 36 95
e 36 96
e 37 39
e 37 43
e 37 50
e 37 56
e 37 60
e 37 62
e 37 64
e 37 67
e 37 70
e 37 73
e 37 74
e 37 80
e 37 84
e 37 86
e 37 87
e 37 96
e 38 44
e 38 49
e 38 53
e 38 55
e 38 56
e 38 63
e 38 65
e 38 66
e 38 67
e 38 74
e 38 76
e 38 83
e 38 99
e 39 41
e 39 42
e 39 47
e 39 48
e 39 52
e 39 54
e 39 55
e 39 65
e 39 75
e 39 76
e 39 82
e 39 86
e 39 87
e 39 91
e 39 94
e 39 99
e 39 100
e 40 46
e 40 47
e 40 48
e 40 53
e 40 55
e 40 70
e 40 73
e 40 77
e 40 79
e 40 80
e 40 83
e 40 84
e 40 85
e 40 87
e 40 95
e 40 99
e 40 100
e 41 47
e 41 51
e 41 54
e 41 59
e 41 63
e 41 68
e 41 73
e 41 74
e 41 77
e 41 80
e 41 88
e 41 92
e 41 99
e 42 45
e 42 54
e 42 56
e 42 58
e 42 61
e 42 70
e 42 77
e 42 81
e 42 82
e 42 86
e 42 90
e 42 95
e 42 99
e 42 100
e 43 52
e 43 56
e 43 57
e 43 65
e 43 68
e 43 69
e 43 72
e 43 76
e 43 77
e 43 82
e 43 85
e 43 86
e 43 91
e 44 45
e 44 48
e 44 49
e 44 53
e 44 56
e 44 58
e 44 61
e 44 63
e 44 66
e 44 75
e 44 80
e 44 82
e 44 86
e 44 88
e 44 91
e 44 95
e 44 100
e 45 50
e 45 52
e 45 55
e 45 59
e 45 61
e 45 68
e 45 69
e 45 72
e 45 82
e 45 86
e 45 88
e 45 90
e 45 91
e 45 92
e 45 94
e 45 98
e 46 48
e 46 49
e 46 50
e 46 56
e 46 60
e 46 61
e 46 62
e 46 67
e 46 73
e 46 74
e 46 76
e 46 80
e 46 90
e 46 96
e 46 98
e 47 53
e 47 55
e 47 60
e 47 64
e 47 66
e 47 68
e 47 69
e 47 70
e 47 85
e 47 96
e 48 52
e 48 54
e 48 58
e 48 61
e 48 62
e 48 64
e 48 74
e 48 76
e 48 85
e 48 87
e 48 88
e 48 90
e 48 91
e 48 95
e 49 53
e 49 54
e 49 55
e 49 60
e 49 61
e 49 72
e 49 74
e 49 76
e 49 79
e 49 89
e 49 92
e 49 97
e 49 98
e 49 100
e 50 54
e 50 60
e 50 62
e 50 63
e 50 66
e 50 76
e 50 78
e 50 89
e 50 95
e 50 96
e 51 59
e 51 60
e 51 67
e 51 74
e 51 85
e 51 91
e 51 94
e 51 99
e 52 56
e 52 62
e 52 66
e 52 70
e 52 72
e 52 75
e 52 77
e 52 81
e 52 86
e 52 89
e 52 97
e 52 99
e 53 57
e 53 60
e 53 65
e 53 67
e 53 74
e 53 79
e 53 93
e 53 97
e 54 55
e 54 56
e 54 64
e 54 68
e 54 76
e 54 77
e 54 78
e 54 84
e 54 87
e 54 95
e 54 96
e 54 99
e 55 56
e 55 62
e 55 64
e 55 65
e 55 69
e 55 70
e 55 72
e 55 75
e 55 78
e 55 83
e 55 86
e 55 88
e 55 95
e 55 98
e 55 99
e 55 100
e 56 57
e 56 60
e 56 62
e 56 65
e 56 66
e 56 67
e 56 75
e 56 76
e 56 79
e 56 83
e 56 87
e 56 91
e 56 95
e 56 97
e 57 58
e 57 60
e 57 64
e 57 74
e 57 75
e 57 85
e 57 88
e 57 91
e 57 97
e 57 98
e 57 100
e 58 60
e 58 61
e 58 62
e 58 66
e 58 69
e 58 70
e 58 72
e 58 76
e 58 83
e 58 84
e 58 89
e 58 100
e 59 71
e 59 72
e 59 73
e 59 78
e 59 79
e 59 80
e 59 84
e 59 91
e 59 93
e 59 94
e 59 95
e 59 97
e 60 61
e 60 63
e 60 66
e 60 68
e 60 69
e 60 71
e 60 74
e 60 77
e 60 81
e 60 82
e 60 83
e 60 89
e 60 91
e 60 95
e 60 100
e 61 62
e 61 67
e 61 73
e 61 76
e 61 82
e 61 83
e 61 84
e 61 86
e 61 91
e 61 92
e 62 67
e 62 68
e 62 69
e 62 75
e 62 83
e 62 85
e 62 92
e 62 93
e 62 97
e 62 99
e 63 65
e 63 68
e 63 72
e 63 73
e 63 77
e 63 79
e 63 80
e 63 81
e 63 90
e 63 92
e 63 95
e 63 97
e 63 99
e 64 67
e 64 68
e 64 70
e 64 73
e 64 75
e 64 76
e 64 81
e 64 83
e 64 85
e 64 94
e 64 99
e 65 66
e 65 67
e 65 72
e 65 73
e 65 74
e 65 75
e 65 81
e 65 84
e 65 85
e 65 92
e 66 67
e 66 70
e 66 75
e 66 76
e 66 83
e 66 87
e 66 90
e 66 92
e 66 95
e 66 98
e 66 99
e 67 69
e 67 70
e 67 71
e 67 72
e 67 79
e 67 84
e 67 85
e 67 89
e 67 94
e 67 95
e 67 97
e 67 98
e 68 72
e 68 74
e 68 75
e 68 76
e 68 87
e 68 90
e 68 93
e 68 95
e 68 96
e 69 73
e 69 77
e 69 80
e 69 82
e 69 85
e 69 87
e 69 90
e 69 97
e 69 98
e 69 99
e 69 100
e 70 71
e 70 72
e 70 75
e 70 84
e 70 86
e 71 73
e 71 78
e 71 79
e 71 86
e 71 89
e 71 94
e 71 95
e 71 97
e 71 98
e 71 99
e 72 76
e 72 82
e 72 83
e 72 88
e 72 90
e 72 98
e 72 100
e 73 91
e 73 92
e 73 93
e 73 95
e 73 97
e 74 90
e 74 96
e 74 97
e 74 98
e 75 80
e 75 82
e 75 89
e 75 93
e 75 95
e 75 99
e 75 100
e 76 84
e 76 93
e 76 95
e 77 80
e 77 86
e 77 91
e 77 97
e 77 98
e 77 99
e 77 100
e 78 80
e 78 92
e 78 95
e 78 96
e 78 100
e 79 81
e 79 89
e 79 91
e 79 95
e 79 96
e 79 98
e 80 81
e 80 84
e 80 89
e 80 91
e 80 92
e 80 95
e 80 96
e 80 98
e 81 85
e 81 98
e 82 89
e 82 92
e 82 94
e 82 95
e 82 96
e 82 97
e 83 87
e 83 93
e 83 97
e 84 88
e 84 92
e 84 96
e 84 100
e 85 86
e 85 93
e 85 99
e 85 100
e 86 88
e 86 89
e 86 91
e 86 95
e 86 98
e 87 88
e 87 91
e 87 92
e 87 93
e 87 97
e 88 93
e 88 94
e 88 99
e 89 93
e 89 94
e 89 99
e 89 100
e 90 91
e 90 96
e 90 97
e 91 96
e 91 97
e 92 93
e 92 95
e 92 98
e 93 94
e 93 95
e 93 96
e 93 97
e 93 98
e 94 98
e 95 98
e 95 99
e 96 97
e 96 99
e 96 100
